WARNING: for repeatability, setting FPU to use double precision
============================[ Problem Statistics ]=============================
|                                                                             |
|  Number of variables:           100                                         |
|  Number of clauses:             449                                         |
|  Parse time:                   0.00 s                                       |
|  Eliminated clauses:           0.00 Mb                                      |
|  Simplification time:          0.00 s                                       |
|                                                                             |
============================[ Search Statistics ]==============================
| Conflicts |          ORIGINAL         |          LEARNT          | Progress |
|           |    Vars  Clauses Literals |    Limit  Clauses Lit/Cl |          |
===============================================================================
|       100 |      98      447     1357 |      163      100      6 |  0.011 % |
===============================================================================
restarts              : 2
conflicts             : 130            (200617 /sec)
decisions             : 177            (0.00 % random) (273148 /sec)
propagations          : 2889           (4458333 /sec)
conflict literals     : 806            (14.16 % deleted)
Memory used           : 13.00 MB
CPU time              : 0.000648 s

SATISFIABLE
